ACTORES = {Actor1, Actor2, Actor3};
Escenas = [|1,1,1,1,0,0,1,1,1,0,0,0,1,1,10
           |1,1,1,1,0,0,0,0,0,0,0,0,0,0,20
           |1,1,0,0,0,0,1,1,1,1,1,1,0,0,15|]; 
Duracion = [2,1,1,1,3,4,1,1,1,2,1,1,2,3];